        newton          on
        boundary        p p p
        units           real

        atom_style      full
        bond_style      harmonic
        angle_style     harmonic
        pair_style      lj/cut/coul/long 14.0
        kspace_style ewald 0.00001
        
        read_data ./AAA
        pair_coeff 1 1 0.053654 2.8
        pair_coeff 2 2 0.156986 3.05
        pair_coeff 1 2 0.091776 2.925
        bond_coeff 1 554.135 1.16
        angle_coeff 1 55.045 180    
        
        #Formats the Lammps Log File
        thermo_style custom step time etotal pe ke temp press vol pxx pyy pzz pxy pxz pyz
        thermo 10


        #Defines a dump similar to above, but unwrapped.
        dump difffile all custom 50 ./config_out.dat id xu yu zu
        dump_modify difffile sort 1


        #Defines a dump of a movie every picosecond
        dump movie all custom 1000 ./config_movie.coords id type xu yu zu vx vy vz fx fy fz
        
        fix 1 all nve
        timestep 1.0
        run 20000
        unfix 1
